
Gurobi 6.5.2 (win64) logging started 07/24/16 17:24:26


Gurobi 6.5.2 (win64) logging started 07/24/16 17:24:26

Optimize a model with 767 rows, 169 columns and 1661 nonzeros
Coefficient statistics:
  Matrix range    [1e+00, 1e+00]
  Objective range [2e+00, 4e+02]
  Bounds range    [1e+00, 1e+00]
  RHS range       [1e+00, 1e+00]
Found heuristic solution: objective -0
Presolve removed 689 rows and 28 columns
Presolve time: 0.00s
Presolved: 78 rows, 141 columns, 443 nonzeros
Found heuristic solution: objective 1470.0000000
Variable types: 0 continuous, 141 integer (141 binary)

Root relaxation: cutoff, 35 iterations, 0.00 seconds

    Nodes    |    Current Node    |     Objective Bounds      |     Work
 Expl Unexpl |  Obj  Depth IntInf | Incumbent    BestBd   Gap | It/Node Time

     0     0     cutoff    0      1470.00000 1470.99853  0.07%     -    0s

Explored 0 nodes (35 simplex iterations) in 0.00 seconds
Thread count was 8 (of 8 available processors)

Optimal solution found (tolerance 1.00e-04)
Best objective 1.470000000000e+03, best bound 1.470000000000e+03, gap 0.0%

Wrote requested result file 'H1\instance4\\Results4.lp'

